\ Model SP_copy
\ LP format - for model browsing. Use MPS format to capture full model detail.
Minimize
 
Subject To
 C5_new_nj_iff_facility_is_open(2,3,8): - r(2,3,8) + n(2,3,8) <= 0
Bounds
 r(2,3,8) = 0
 n(2,3,8) >= 0.7733333333333333
Binaries
 r(2,3,8)
End
